c SAT problem
p wcnf 598 2371
1 60 -3120 0
1 60 61 0
1 75 -76 0
1 -75 -3165 0
1 90 3105 0
1 -90 -105 0
1 -90 3135 0
1 105 -3075 0
1 -105 3150 0
1 105 90 0
1 -105 3135 0
1 -3120 -75 0
1 -3135 -196 0
1 3135 -165 0
1 3135 181 0
1 -3150 -75 0
1 -3150 -151 0
1 -3150 121 0
1 3150 90 0
1 3165 166 0
1 -3165 3150 0
1 120 3090 0
1 135 -136 0
1 -135 -3120 0
1 -135 -3090 0
1 -135 120 0
1 -150 -3045 0
1 150 -3015 0
1 150 -3000 0
1 150 -3135 0
1 165 -3045 0
1 165 3090 0
1 -165 3030 0
1 3060 -165 0
1 -3060 240 0
1 3060 -180 0
1 -3060 150 0
1 3060 90 0
1 -3075 -195 0
1 -3075 150 0
1 -3090 -105 0
1 -3090 -240 0
1 -3090 -211 0
1 -3090 -150 0
1 3105 -226 0
1 -3105 135 0
1 -3105 211 0
1 3105 -150 0
1 180 -3030 0
1 195 3045 0
1 -195 -180 0
1 -195 3060 0
1 -210 -3015 0
1 -210 211 0
1 210 -3060 0
1 -210 -3000 0
1 -225 3075 0
1 -225 3030 0
1 3000 -195 0
1 3000 -150 0
1 -3015 -150 0
1 -3015 -3000 0
1 -3015 315 0
1 -3030 270 0
1 3030 315 0
1 3045 165 0
1 3045 -300 0
1 3045 -150 0
1 -3045 315 0
1 -3045 285 0
1 61 -3330 0
1 61 76 0
1 76 77 0
1 -76 3345 0
1 -91 3345 0
1 -91 3285 0
1 -106 -3300 0
1 -106 3270 0
1 -106 -107 0
1 -106 3345 0
1 3300 197 0
1 -3300 -3315 0
1 3300 -151 0
1 3300 -121 0
1 3315 -166 0
1 -3330 -3331 0
1 3330 167 0
1 -3330 3345 0
1 3330 61 0
1 3345 -152 0
1 3345 61 0
1 -121 3270 0
1 -121 -3240 0
1 -121 3150 0
1 121 -3285 0
1 121 -122 0
1 -136 3300 0
1 -136 135 0
1 136 3150 0
1 -136 3255 0
1 151 3240 0
1 -151 3150 0
1 151 -152 0
1 151 -3165 0
1 166 3255 0
1 166 -3300 0
1 166 165 0
1 -166 3285 0
1 -166 3165 0
1 3240 136 0
1 -3240 -3241 0
1 3240 106 0
1 3240 -241 0
1 3240 91 0
1 3255 166 0
1 -3255 -3240 0
1 3255 -106 0
1 3255 -241 0
1 3270 -197 0
1 3270 3271 0
1 3270 -241 0
1 -3270 -151 0
1 3285 197 0
1 3285 -182 0
1 3285 -91 0
1 -181 -3180 0
1 181 3120 0
1 -181 -3225 0
1 -181 -3195 0
1 196 -195 0
1 196 197 0
1 196 3180 0
1 196 -3120 0
1 -196 3225 0
1 -211 -3240 0
1 211 3090 0
1 211 3166 0
1 -226 -225 0
1 226 3121 0
1 -226 3195 0
1 -3180 196 0
1 3180 166 0
1 3180 -270 0
1 3180 3181 0
1 -3180 151 0
1 3180 -3195 0
1 3180 -316 0
1 -3180 285 0
1 3180 -255 0
1 3195 196 0
1 -3195 -166 0
1 -3195 -3180 0
1 3195 240 0
1 -3195 151 0
1 -3210 -196 0
1 -3210 166 0
1 -3210 3211 0
1 -3210 181 0
1 3210 151 0
1 3225 -226 0
1 3225 181 0
1 -240 -3075 0
1 -240 -3045 0
1 240 3180 0
1 240 -3121 0
1 240 -3166 0
1 -240 -255 0
1 -255 256 0
1 255 3136 0
1 -255 3045 0
1 -255 3151 0
1 255 -3060 0
1 -255 -3030 0
1 270 3106 0
1 -270 -3076 0
1 270 3121 0
1 285 3136 0
1 285 3106 0
1 285 3045 0
1 285 -3180 0
1 -285 -3166 0
1 -3121 3136 0
1 -3121 270 0
1 -3121 315 0
1 3121 -285 0
1 -3136 -3137 0
1 3136 -226 0
1 3136 3135 0
1 -3151 270 0
1 -3151 -376 0
1 -3166 361 0
1 3166 331 0
1 -3166 -376 0
1 -3166 -316 0
1 3166 -3167 0
1 -3166 255 0
1 300 3076 0
1 -300 -301 0
1 -300 3030 0
1 -300 -315 0
1 315 3106 0
1 315 -300 0
1 -315 3061 0
1 315 3030 0
1 -330 -3136 0
1 -330 -3016 0
1 345 3046 0
1 -345 -3121 0
1 -345 3091 0
1 -345 3061 0
1 -345 -3001 0
1 -345 346 0
1 -3061 -300 0
1 3061 -435 0
1 3076 3077 0
1 -3076 -360 0
1 3076 300 0
1 -3076 -270 0
1 -3076 285 0
1 3091 420 0
1 3091 -391 0
1 3091 -435 0
1 -3091 406 0
1 -3091 -376 0
1 -3091 -315 0
1 3091 -285 0
1 3106 3105 0
1 -3106 3107 0
1 -3106 330 0
1 3106 270 0
1 -3106 -435 0
1 3106 -376 0
1 3106 285 0
1 -360 3046 0
1 -360 -3031 0
1 -360 -3001 0
1 -375 3046 0
1 375 3016 0
1 -375 -3001 0
1 -390 405 0
1 390 3031 0
1 -405 -3046 0
1 -3001 -495 0
1 -3001 -405 0
1 -3001 -375 0
1 -3001 -3002 0
1 -3016 330 0
1 -3016 495 0
1 3016 405 0
1 3031 -390 0
1 -3031 -330 0
1 3031 375 0
1 -3031 345 0
1 -3046 375 0
1 -3046 345 0
1 -62 77 0
1 -77 -62 0
1 -92 -3465 0
1 -92 -3480 0
1 -92 3450 0
1 92 -93 0
1 107 -106 0
1 -107 3510 0
1 107 -3450 0
1 3480 167 0
1 3480 183 0
1 3480 -3481 0
1 3480 122 0
1 -3495 198 0
1 -3495 122 0
1 3510 168 0
1 3510 62 0
1 3525 198 0
1 3525 -3510 0
1 3525 -153 0
1 -3525 -62 0
1 122 -121 0
1 137 -3330 0
1 137 3495 0
1 152 -3480 0
1 -167 168 0
1 -3420 167 0
1 -3420 137 0
1 3435 -257 0
1 -3435 -242 0
1 -3435 -3420 0
1 3450 -137 0
1 3450 3465 0
1 -3450 107 0
1 3450 92 0
1 -3465 -228 0
1 3465 167 0
1 -3465 213 0
1 182 -3360 0
1 182 3330 0
1 -182 3300 0
1 182 181 0
1 -182 -183 0
1 182 3420 0
1 197 3330 0
1 -197 196 0
1 -197 3270 0
1 197 -198 0
1 -197 3345 0
1 -197 3285 0
1 -197 -182 0
1 -212 -3331 0
1 -212 -3301 0
1 -212 213 0
1 212 -3390 0
1 227 -3360 0
1 227 -3346 0
1 227 3390 0
1 -3360 256 0
1 -3360 152 0
1 -3360 -317 0
1 -3360 -286 0
1 -3375 227 0
1 -3375 167 0
1 -3375 241 0
1 3375 152 0
1 3390 -3405 0
1 -3390 -242 0
1 -3390 -152 0
1 -3390 287 0
1 3405 -257 0
1 -3405 3406 0
1 3405 212 0
1 -3405 -317 0
1 -241 3331 0
1 -241 3270 0
1 -241 -3210 0
1 -241 -240 0
1 241 -242 0
1 241 3346 0
1 241 -3316 0
1 -241 -3255 0
1 256 3360 0
1 256 3331 0
1 -256 3346 0
1 256 3316 0
1 -256 3225 0
1 -256 -255 0
1 -271 -270 0
1 271 3375 0
1 -271 -3346 0
1 271 3316 0
1 271 -3225 0
1 -271 286 0
1 286 3331 0
1 286 -3301 0
1 -286 -3271 0
1 -286 3210 0
1 286 -3286 0
1 -286 -3225 0
1 3301 256 0
1 3301 3302 0
1 3301 301 0
1 -3301 212 0
1 3301 3316 0
1 3301 377 0
1 -3301 316 0
1 -3316 -227 0
1 3316 -271 0
1 3316 -241 0
1 -3316 3315 0
1 3316 -377 0
1 3316 316 0
1 -3316 286 0
1 3331 3330 0
1 3331 -3332 0
1 -3331 362 0
1 -3331 271 0
1 3331 -286 0
1 -3346 256 0
1 -3346 -362 0
1 -3346 -241 0
1 -3346 3345 0
1 3346 286 0
1 301 3241 0
1 301 302 0
1 -301 3151 0
1 301 3225 0
1 316 3301 0
1 -316 -3195 0
1 -316 -3151 0
1 -316 -317 0
1 -316 -3166 0
1 331 -3226 0
1 -331 3271 0
1 -331 3241 0
1 331 -332 0
1 331 -3151 0
1 -331 3196 0
1 -331 3166 0
1 -346 -3271 0
1 346 -3181 0
1 346 -3226 0
1 -346 347 0
1 -346 -3166 0
1 3241 -376 0
1 -3256 -361 0
1 -3256 271 0
1 -3256 436 0
1 -3256 -316 0
1 -3271 -3270 0
1 -3271 362 0
1 3271 301 0
1 3286 -362 0
1 3286 -377 0
1 -3286 -346 0
1 361 3256 0
1 -361 -376 0
1 361 -3196 0
1 -361 3166 0
1 -376 -3211 0
1 -376 3091 0
1 -376 -3226 0
1 376 3196 0
1 376 -3166 0
1 391 390 0
1 -391 -3181 0
1 -391 -3152 0
1 391 3122 0
1 391 3256 0
1 -406 3137 0
1 406 -3241 0
1 406 3122 0
1 -406 -3256 0
1 406 3196 0
1 -3181 391 0
1 -3181 -331 0
1 3181 -496 0
1 -3181 435 0
1 -3181 -406 0
1 3196 -481 0
1 3196 -3181 0
1 3196 -435 0
1 3211 451 0
1 3211 -361 0
1 3211 331 0
1 -3211 466 0
1 3211 346 0
1 -3226 421 0
1 -3226 -361 0
1 3226 376 0
1 3226 3225 0
1 -420 421 0
1 -420 -435 0
1 420 3061 0
1 420 -3167 0
1 -435 3046 0
1 -435 -3152 0
1 435 3122 0
1 435 -3091 0
1 -435 -3031 0
1 -435 3196 0
1 -450 3137 0
1 -450 451 0
1 -450 3107 0
1 -450 3181 0
1 450 3152 0
1 -450 -3092 0
1 450 3167 0
1 465 -450 0
1 -465 466 0
1 -465 -3122 0
1 465 -3092 0
1 465 -3062 0
1 -465 3196 0
1 3122 -480 0
1 -3122 -525 0
1 3137 -480 0
1 -3137 -3136 0
1 -3137 391 0
1 -3137 -406 0
1 -3152 -3151 0
1 -3152 -496 0
1 3152 -465 0
1 3152 -541 0
1 -3167 -450 0
1 3167 391 0
1 3167 -556 0
1 3167 496 0
1 -3167 -3152 0
1 -3167 -541 0
1 -480 3137 0
1 -480 -3107 0
1 480 3077 0
1 -480 -3016 0
1 480 3062 0
1 480 -3001 0
1 495 -3137 0
1 495 3122 0
1 -495 -3092 0
1 510 3107 0
1 525 -3047 0
1 525 3002 0
1 3062 480 0
1 3062 450 0
1 3062 3077 0
1 -3062 -555 0
1 3062 -3061 0
1 -3062 600 0
1 3062 -540 0
1 3077 -480 0
1 3077 450 0
1 -3077 3076 0
1 3092 -450 0
1 3092 495 0
1 -3092 600 0
1 -3107 615 0
1 3107 3092 0
1 540 3077 0
1 540 -3032 0
1 555 3077 0
1 -555 -3047 0
1 -555 556 0
1 -555 -3062 0
1 -555 3002 0
1 570 3017 0
1 585 -3032 0
1 -3002 -585 0
1 -3002 555 0
1 3002 -660 0
1 3002 -3003 0
1 3017 -3002 0
1 3017 3016 0
1 3017 585 0
1 3017 -3018 0
1 3017 -525 0
1 3017 -540 0
1 3032 645 0
1 -3032 -555 0
1 -3032 -660 0
1 3047 -615 0
1 -3047 -3048 0
1 3047 525 0
1 3047 660 0
1 -63 64 0
1 63 3660 0
1 -78 79 0
1 -78 63 0
1 -93 3675 0
1 -93 3645 0
1 -108 -109 0
1 108 3600 0
1 108 -3705 0
1 108 93 0
1 3660 108 0
1 3660 123 0
1 3660 -93 0
1 3660 -63 0
1 3675 168 0
1 3675 -184 0
1 3675 153 0
1 3675 -63 0
1 3690 -184 0
1 -3690 -154 0
1 3690 124 0
1 3690 93 0
1 3690 -63 0
1 -3705 199 0
1 -3705 169 0
1 3705 -3706 0
1 -123 3525 0
1 123 -3630 0
1 123 -122 0
1 123 -3645 0
1 138 -3525 0
1 138 137 0
1 138 3510 0
1 -138 -3675 0
1 -138 -3615 0
1 153 3585 0
1 -153 3510 0
1 153 -154 0
1 153 -3675 0
1 -168 3555 0
1 168 -169 0
1 168 3660 0
1 -168 3645 0
1 -3600 243 0
1 -3600 -183 0
1 3600 153 0
1 3600 93 0
1 -3615 -138 0
1 -3615 108 0
1 3615 -3600 0
1 3615 213 0
1 3615 93 0
1 3630 229 0
1 3630 -138 0
1 -3630 243 0
1 3630 -184 0
1 -3645 258 0
1 -3645 -229 0
1 -3645 -243 0
1 -3645 153 0
1 -3645 123 0
1 -183 -3585 0
1 -183 -3480 0
1 183 3495 0
1 198 -3555 0
1 -198 -199 0
1 198 3495 0
1 198 -3570 0
1 213 3555 0
1 -213 -228 0
1 213 3526 0
1 213 3481 0
1 213 -3615 0
1 228 3511 0
1 -228 -3450 0
1 228 3615 0
1 -3540 -168 0
1 3540 -272 0
1 3540 213 0
1 -3540 3541 0
1 -3540 318 0
1 -3555 -3556 0
1 -3555 -303 0
1 3555 -213 0
1 3555 183 0
1 -3555 -153 0
1 3570 288 0
1 3570 303 0
1 -3570 -273 0
1 3570 -213 0
1 3570 -153 0
1 -3570 318 0
1 -3585 -198 0
1 -3585 -153 0
1 3585 318 0
1 -242 3540 0
1 242 3420 0
1 -242 -3390 0
1 257 -256 0
1 -272 3526 0
1 272 3466 0
1 -272 -3405 0
1 272 3540 0
1 272 3481 0
1 -287 3466 0
1 287 3405 0
1 -287 -3481 0
1 -287 3451 0
1 3481 228 0
1 3481 -3496 0
1 -3481 -363 0
1 -3481 3480 0
1 3481 378 0
1 -3481 347 0
1 3496 257 0
1 3496 302 0
1 3496 272 0
1 -3496 213 0
1 3496 3481 0
1 -3496 317 0
1 3511 -3510 0
1 -3511 3512 0
1 3511 348 0
1 3526 242 0
1 -3526 -378 0
1 -3526 348 0
1 -3526 318 0
1 -3526 -287 0
1 302 3496 0
1 -302 3466 0
1 302 3436 0
1 -302 -3405 0
1 302 3346 0
1 302 3421 0
1 317 -316 0
1 -317 -318 0
1 332 -3331 0
1 -332 -3451 0
1 -332 3421 0
1 347 -3331 0
1 347 -3406 0
1 -347 3346 0
1 -3421 -362 0
1 3421 332 0
1 3421 407 0
1 3421 347 0
1 -3421 -287 0
1 3436 3435 0
1 -3436 3437 0
1 3436 -302 0
1 -3436 -347 0
1 3436 -317 0
1 3451 422 0
1 -3451 3450 0
1 3451 272 0
1 -3451 -408 0
1 3451 -317 0
1 3466 -393 0
1 -3466 363 0
1 3466 -332 0
1 3466 -272 0
1 -3466 -3451 0
1 3466 408 0
1 -362 3331 0
1 362 -363 0
1 -362 -3376 0
1 -362 3316 0
1 377 -3271 0
1 377 3436 0
1 377 -3391 0
1 -392 3302 0
1 392 3271 0
1 -392 3421 0
1 -392 -3391 0
1 407 3332 0
1 -407 3271 0
1 -407 -392 0
1 -407 3436 0
1 407 -3406 0
1 3361 -482 0
1 -3361 392 0
1 -3361 466 0
1 -3361 436 0
1 -3361 407 0
1 3376 -362 0
1 -3376 -466 0
1 3376 347 0
1 -3391 -482 0
1 3391 -422 0
1 3391 332 0
1 3391 3406 0
1 3391 497 0
1 -3391 437 0
1 3391 377 0
1 -3391 3390 0
1 3406 -377 0
1 -3406 3391 0
1 -421 3271 0
1 421 -3302 0
1 421 3241 0
1 -421 -3211 0
1 421 3317 0
1 -436 421 0
1 436 -3302 0
1 436 -3241 0
1 -436 3347 0
1 436 3317 0
1 451 -3361 0
1 451 450 0
1 -451 -3332 0
1 -451 -3242 0
1 451 -3211 0
1 451 -466 0
1 -451 3317 0
1 451 3226 0
1 -466 -3361 0
1 466 3272 0
1 -466 -467 0
1 -466 3347 0
1 466 -3257 0
1 466 3226 0
1 3302 451 0
1 3302 3303 0
1 -3302 -3317 0
1 3317 511 0
1 -3332 -482 0
1 -3332 3331 0
1 -3332 -3333 0
1 3332 392 0
1 3332 466 0
1 -3347 512 0
1 3347 3332 0
1 -3347 421 0
1 3347 -392 0
1 -3347 -3346 0
1 481 3181 0
1 496 -3272 0
1 -496 3317 0
1 496 -3226 0
1 496 -3196 0
1 496 3167 0
1 511 -3182 0
1 -511 -3287 0
1 -526 -511 0
1 -526 -3152 0
1 -526 -3317 0
1 -526 -3227 0
1 -3242 451 0
1 3242 -586 0
1 3242 -526 0
1 3242 496 0
1 -3242 466 0
1 -3242 541 0
1 -3257 -526 0
1 -3257 -496 0
1 3257 -466 0
1 -3257 511 0
1 -3272 -481 0
1 3272 -3273 0
1 3272 557 0
1 -3272 -466 0
1 -3272 -511 0
1 -3287 -481 0
1 3287 616 0
1 3287 -557 0
1 -3287 526 0
1 3287 -3286 0
1 -3287 3288 0
1 3287 572 0
1 -3287 -511 0
1 541 3122 0
1 -541 3257 0
1 -541 3167 0
1 556 3257 0
1 -556 -3227 0
1 556 -3167 0
1 -571 -3138 0
1 -571 -3242 0
1 -571 3182 0
1 571 -3092 0
1 -571 -572 0
1 586 3153 0
1 -586 -3092 0
1 -586 -3197 0
1 3182 -676 0
1 3182 645 0
1 3182 586 0
1 -3182 3183 0
1 3182 511 0
1 3197 3182 0
1 -3197 630 0
1 3197 3196 0
1 -3197 -3198 0
1 3212 3227 0
1 -3212 541 0
1 -3227 556 0
1 -3227 -631 0
1 3227 601 0
1 3227 -571 0
1 3227 -3228 0
1 -600 3168 0
1 600 3047 0
1 600 -3092 0
1 600 -3062 0
1 -600 3032 0
1 -600 601 0
1 -600 3197 0
1 615 3168 0
1 615 -3107 0
1 615 -3047 0
1 -615 3197 0
1 -630 3138 0
1 630 645 0
1 630 3153 0
1 645 -3108 0
1 -645 3182 0
1 645 3123 0
1 -645 3093 0
1 -645 3032 0
1 645 -3197 0
1 -3123 675 0
1 3123 -615 0
1 3123 571 0
1 3138 675 0
1 3138 645 0
1 -3138 -586 0
1 3138 -721 0
1 -3138 -600 0
1 -3138 -571 0
1 -3153 -736 0
1 3153 -3168 0
1 -3153 -615 0
1 3168 -3153 0
1 -3168 691 0
1 -3168 -600 0
1 3168 3167 0
1 -660 -3108 0
1 660 -3078 0
1 -660 -661 0
1 660 3093 0
1 -675 3108 0
1 -675 -3078 0
1 675 3032 0
1 -675 -3002 0
1 -690 3108 0
1 -690 3078 0
1 690 -3048 0
1 -690 3123 0
1 690 3093 0
1 705 -3138 0
1 -705 3018 0
1 -705 -690 0
1 -705 3123 0
1 3063 -705 0
1 3063 -750 0
1 -3063 -720 0
1 -3063 -690 0
1 3063 660 0
1 3063 -630 0
1 -3063 3062 0
1 -3063 -795 0
1 -3063 -735 0
1 3078 705 0
1 3078 675 0
1 3078 -3077 0
1 -3078 780 0
1 -3078 750 0
1 3078 660 0
1 -3078 630 0
1 -3078 3063 0
1 3093 -705 0
1 3093 -780 0
1 3093 660 0
1 3093 630 0
1 3108 -3093 0
1 720 -735 0
1 720 3033 0
1 -735 -3078 0
1 -735 3018 0
1 735 3003 0
1 750 -3078 0
1 -750 -3048 0
1 -750 3063 0
1 750 765 0
1 765 3048 0
1 765 3018 0
1 765 3033 0
1 -3003 -720 0
1 -3003 -690 0
1 -3003 735 0
1 -3018 -705 0
1 -3018 3017 0
1 -3033 705 0
1 -3033 840 0
1 -3033 -810 0
1 3033 780 0
1 -3033 3032 0
1 -3033 -825 0
1 -3048 750 0
1 3048 795 0
1 -64 3885 0
1 79 -64 0
1 79 -3855 0
1 -79 3870 0
1 -94 -3810 0
1 -94 -3780 0
1 94 -109 0
1 -94 3825 0
1 94 3870 0
1 109 -3810 0
1 -109 3780 0
1 109 3870 0
1 -109 -3825 0
1 109 -94 0
1 3840 -64 0
1 3840 -3841 0
1 3840 -124 0
1 3855 -3840 0
1 -3855 -169 0
1 3855 -139 0
1 3855 3856 0
1 3855 -124 0
1 3855 -94 0
1 3870 -3871 0
1 -3885 3870 0
1 -124 3810 0
1 124 -3855 0
1 -124 -3825 0
1 139 -3780 0
1 -139 -138 0
1 139 -3690 0
1 -139 3825 0
1 154 3705 0
1 -169 -3840 0
1 -169 168 0
1 -169 3795 0
1 169 3705 0
1 -3780 -259 0
1 -3780 -3781 0
1 3780 -214 0
1 3795 169 0
1 3795 -3796 0
1 3795 214 0
1 3795 184 0
1 3810 -3811 0
1 3810 3825 0
1 3810 244 0
1 -3810 154 0
1 3825 -3810 0
1 -3825 244 0
1 3825 -154 0
1 -3825 94 0
1 184 -3780 0
1 -184 3750 0
1 -184 3630 0
1 -184 -3705 0
1 184 -183 0
1 199 198 0
1 199 3750 0
1 -214 229 0
1 -214 -3750 0
1 214 -3676 0
1 -229 3780 0
1 -229 3691 0
1 229 3765 0
1 -229 3676 0
1 3720 -288 0
1 3720 199 0
1 -3720 -3721 0
1 3720 304 0
1 -3720 214 0
1 -3720 -184 0
1 3720 154 0
1 3735 -288 0
1 -3735 -258 0
1 -3735 -229 0
1 -3735 -243 0
1 3735 184 0
1 3750 3751 0
1 3765 -259 0
1 -3765 229 0
1 -3765 -244 0
1 3765 184 0
1 -3765 154 0
1 -243 258 0
1 243 -3630 0
1 243 3600 0
1 243 -244 0
1 243 3706 0
1 258 -259 0
1 258 -3720 0
1 -273 -288 0
1 -273 3616 0
1 273 3691 0
1 273 3601 0
1 273 3676 0
1 -273 -3646 0
1 -288 3616 0
1 288 -289 0
1 288 3585 0
1 -288 273 0
1 288 -3570 0
1 288 -3601 0
1 -288 -3676 0
1 -288 287 0
1 3661 229 0
1 -3661 364 0
1 -3661 -333 0
1 3661 -303 0
1 3661 -273 0
1 -3661 -214 0
1 -3661 348 0
1 3676 -273 0
1 3676 214 0
1 3676 348 0
1 3676 3677 0
1 -3691 -3692 0
1 -3691 334 0
1 3691 273 0
1 -3691 214 0
1 3691 349 0
1 -3706 -258 0
1 3706 -3691 0
1 -3706 273 0
1 3706 349 0
1 -303 -3646 0
1 303 -302 0
1 -303 3570 0
1 303 3511 0
1 303 -3676 0
1 303 -318 0
1 318 3616 0
1 -318 -3526 0
1 318 -3661 0
1 -318 3631 0
1 -318 3601 0
1 318 3570 0
1 -318 3540 0
1 333 3616 0
1 -333 3556 0
1 333 334 0
1 -333 -3541 0
1 333 3511 0
1 348 3526 0
1 348 333 0
1 348 3511 0
1 -348 -3676 0
1 -348 -349 0
1 3601 -423 0
1 -3601 3602 0
1 -3601 438 0
1 3616 -3617 0
1 3616 423 0
1 -3616 318 0
1 3631 364 0
1 3631 -333 0
1 3631 303 0
1 3631 -379 0
1 3646 288 0
1 3646 394 0
1 3646 333 0
1 -3646 303 0
1 -3646 -348 0
1 -3646 -3645 0
1 -3646 -318 0
1 -363 -3616 0
1 -363 -3556 0
1 -363 362 0
1 363 3601 0
1 378 -3526 0
1 378 -3571 0
1 378 3541 0
1 378 3511 0
1 -393 -3586 0
1 393 -3556 0
1 393 -3466 0
1 -393 3541 0
1 -393 -3482 0
1 -408 3466 0
1 408 -3497 0
1 -3541 -483 0
1 3541 422 0
1 -3541 -333 0
1 3541 -498 0
1 -3541 467 0
1 -3541 3540 0
1 -3556 -3557 0
1 3556 -333 0
1 -3556 -498 0
1 -3556 -467 0
1 -3556 437 0
1 -3556 3541 0
1 -3556 -408 0
1 -3556 378 0
1 3571 -423 0
1 3571 393 0
1 3571 498 0
1 3571 -3570 0
1 -3586 -3585 0
1 -3586 -483 0
1 -3586 -3587 0
1 -3586 3571 0
1 3586 -438 0
1 3586 -408 0
1 -3586 -348 0
1 -422 -3556 0
1 422 421 0
1 422 3482 0
1 422 -3421 0
1 -437 -3527 0
1 -437 -3466 0
1 -437 -3406 0
1 437 3541 0
1 452 -3556 0
1 -452 453 0
1 -452 3497 0
1 452 -3467 0
1 452 -3437 0
1 -452 -3406 0
1 452 -3541 0
1 452 -3512 0
1 467 -3527 0
1 -467 3467 0
1 467 -466 0
1 -467 3512 0
1 467 -3482 0
1 -467 -3422 0
1 3482 -422 0
1 3482 3497 0
1 3482 -497 0
1 -3497 -482 0
1 -3497 -558 0
1 -3497 497 0
1 -3497 467 0
1 3497 3482 0
1 3497 -543 0
1 3512 -513 0
1 -3512 -483 0
1 -3512 528 0
1 -3512 498 0
1 3512 3511 0
1 -3512 -3513 0
1 3512 -543 0
1 -3527 -483 0
1 -3527 -528 0
1 -3527 467 0
1 -3527 -408 0
1 482 -3497 0
1 -482 3347 0
1 -482 3391 0
1 -497 -3361 0
1 497 -3497 0
1 497 -3467 0
1 497 3376 0
1 497 3482 0
1 512 3332 0
1 512 -3467 0
1 512 3437 0
1 512 -527 0
1 -527 528 0
1 527 -3452 0
1 527 -3422 0
1 -3422 512 0
1 3422 617 0
1 3422 557 0
1 -3422 -3437 0
1 -3422 -527 0
1 -3422 -602 0
1 3437 -557 0
1 3437 527 0
1 -3437 -467 0
1 -3437 -3422 0
1 -3452 512 0
1 3452 -452 0
1 -3452 -617 0
1 3452 3453 0
1 3452 -3451 0
1 -3452 573 0
1 3452 543 0
1 3467 617 0
1 -3467 3466 0
1 -3467 -3468 0
1 -3467 -558 0
1 -3467 -527 0
1 -3467 -3452 0
1 3467 -573 0
1 557 -3332 0
1 -557 3302 0
1 557 556 0
1 -557 558 0
1 557 3377 0
1 557 3287 0
1 572 -3362 0
1 572 -3303 0
1 572 587 0
1 572 -3407 0
1 572 -3348 0
1 -572 3318 0
1 -587 -3333 0
1 587 3303 0
1 -587 -3272 0
1 -587 -3437 0
1 587 -3407 0
1 -3362 512 0
1 -3362 3361 0
1 -3362 -3363 0
1 3362 -677 0
1 -3377 677 0
1 -3377 587 0
1 3377 -3378 0
1 -3377 -601 0
1 -3377 572 0
1 -3392 -512 0
1 -3392 -587 0
1 -3392 -3391 0
1 -3407 -512 0
1 3407 -587 0
1 -3407 -3406 0
1 3407 3408 0
1 3407 -662 0
1 3407 602 0
1 601 -3272 0
1 -601 -3212 0
1 601 602 0
1 616 -3257 0
1 -616 3333 0
1 616 -3242 0
1 616 -3212 0
1 -631 -3362 0
1 631 3333 0
1 631 -3243 0
1 631 -3227 0
1 631 3288 0
1 -646 -3348 0
1 646 3288 0
1 -3303 706 0
1 -3303 -616 0
1 3303 722 0
1 3303 -691 0
1 3303 661 0
1 -3303 3318 0
1 3303 631 0
1 -3318 737 0
1 3318 -646 0
1 3318 616 0
1 3318 -691 0
1 3318 -661 0
1 3318 -601 0
1 3318 572 0
1 3333 737 0
1 -3333 3334 0
1 3333 -692 0
1 -3333 -3348 0
1 3348 646 0
1 3348 3333 0
1 3348 3347 0
1 -3348 -692 0
1 3348 -662 0
1 661 3153 0
1 676 3273 0
1 676 -3182 0
1 676 3227 0
1 -691 -3228 0
1 -706 3273 0
1 706 3318 0
1 706 3228 0
1 -3243 3244 0
1 -3243 661 0
1 3243 -631 0
1 3243 -3258 0
1 3273 3288 0
1 -3288 691 0
1 -3288 631 0
1 -3288 3289 0
1 721 3138 0
1 721 -720 0
1 721 3123 0
1 -736 -3183 0
1 736 -3123 0
1 736 -3093 0
1 736 -3228 0
1 751 3169 0
1 751 -3108 0
1 751 3258 0
1 751 -3213 0
1 751 -3198 0
1 -766 -3139 0
1 766 -3183 0
1 -766 -3154 0
1 -766 -3198 0
1 3183 -810 0
1 3183 780 0
1 3183 -751 0
1 -3183 -691 0
1 3198 -691 0
1 3198 -856 0
1 -3213 -781 0
1 3213 3214 0
1 3213 751 0
1 3213 -721 0
1 -3228 -811 0
1 -3228 721 0
1 3228 691 0
1 3228 826 0
1 -3228 -3227 0
1 -780 -3169 0
1 -780 781 0
1 -780 -3124 0
1 -795 3108 0
1 795 3048 0
1 -795 -780 0
1 795 -3183 0
1 -795 3124 0
1 -795 -3093 0
1 -795 796 0
1 810 -3109 0
1 -810 825 0
1 825 3079 0
1 825 3033 0
1 -825 -3198 0
1 3124 -840 0
1 -3124 916 0
1 3124 795 0
1 3139 -840 0
1 -3139 -855 0
1 -3139 825 0
1 -3139 -766 0
1 -3154 -3169 0
1 -3154 810 0
1 -3154 3153 0
1 3154 -886 0
1 3154 -766 0
1 3169 -901 0
1 -3169 810 0
1 -3169 751 0
1 3169 -3154 0
1 3169 916 0
1 -3169 825 0
1 -3169 795 0
1 -840 3139 0
1 -840 3079 0
1 -840 -3094 0
1 840 855 0
1 840 -3033 0
1 -855 840 0
1 -870 3139 0
1 870 3079 0
1 870 -3124 0
1 -870 -3004 0
1 -885 -3049 0
1 3079 -930 0
1 -3079 945 0
1 3079 -885 0
1 -3079 -855 0
1 3079 825 0
1 -3094 -870 0
1 -3094 810 0
1 -3094 946 0
1 3094 885 0
1 3109 -901 0
1 -3109 916 0
1 -900 901 0
1 915 -900 0
1 -915 3079 0
1 915 -3019 0
1 915 -3004 0
1 930 -3019 0
1 -930 -3004 0
1 945 3079 0
1 -945 -946 0
1 945 -3034 0
1 -945 -3004 0
1 -3004 -870 0
1 -3004 -945 0
1 3004 -3003 0
1 -3019 -870 0
1 -3019 -945 0
1 -3019 915 0
1 -3034 -870 0
1 -3034 945 0
1 3049 3034 0
1 244 -3810 0
1 -244 -243 0
1 -244 -3795 0
1 -244 3765 0
1 -244 -3871 0
1 -259 3841 0
1 259 -3750 0
1 -259 -3886 0
1 -259 -3765 0
1 274 3886 0
1 -289 288 0
1 289 3841 0
1 289 3811 0
1 289 -274 0
1 -289 -3826 0
1 -289 3796 0
1 -289 3871 0
1 -3841 -3840 0
1 -3841 259 0
1 -3841 -334 0
1 -3841 -304 0
1 -3841 274 0
1 -3841 244 0
1 3856 289 0
1 3856 334 0
1 3856 -3855 0
1 3856 -349 0
1 -3871 -3886 0
1 -3871 274 0
1 3886 274 0
1 -304 3841 0
1 -304 3796 0
1 304 3765 0
1 304 3735 0
1 -304 -3706 0
1 -304 319 0
1 319 3781 0
1 319 -3856 0
1 -319 -3796 0
1 334 3751 0
1 -334 3721 0
1 334 333 0
1 -334 3736 0
1 349 -3841 0
1 -349 3781 0
1 349 3691 0
1 -349 -334 0
1 349 -3856 0
1 349 -3706 0
1 3781 394 0
1 -3781 334 0
1 3781 -304 0
1 3781 -439 0
1 3781 379 0
1 -3796 -289 0
1 3796 -424 0
1 -3796 -364 0
1 3796 3797 0
1 -3796 439 0
1 -3796 409 0
1 -3796 -319 0
1 -3811 289 0
1 3811 -424 0
1 3811 -334 0
1 -3811 349 0
1 -3826 -334 0
1 3826 304 0
1 3826 -319 0
1 -364 -3781 0
1 -364 -3661 0
1 -364 -3631 0
1 364 3646 0
1 379 3646 0
1 -394 3781 0
1 -394 -3751 0
1 394 3692 0
1 -394 3736 0
1 409 3781 0
1 -409 -3721 0
1 409 -394 0
1 -3721 423 0
1 -3721 -499 0
1 3721 -468 0
1 -3721 3736 0
1 3721 409 0
1 -3721 -349 0
1 -3736 364 0
1 3736 -438 0
1 3751 424 0
1 -3751 -364 0
1 3751 499 0
1 -3751 -469 0
1 -3751 409 0
1 3751 349 0
1 -3766 484 0
1 -3766 499 0
1 -3766 349 0
1 423 3586 0
1 423 -424 0
1 423 3662 0
1 -423 3677 0
1 -438 -423 0
1 438 -3571 0
1 453 454 0
1 -453 -3662 0
1 453 3632 0
1 -453 -3602 0
1 453 -3647 0
1 468 -3617 0
1 -468 -3692 0
1 -3662 -544 0
1 -3662 -483 0
1 -3662 -453 0
1 -3662 559 0
1 -3677 -544 0
1 -3677 483 0
1 3677 -394 0
1 3677 3662 0
1 -3677 559 0
1 3677 528 0
1 3677 498 0
1 3677 -468 0
1 3677 3676 0
1 -3677 -3678 0
1 3692 -3691 0
1 3692 559 0
1 -3692 529 0
1 -3707 3706 0
1 483 -3586 0
1 483 -3632 0
1 483 -3647 0
1 -498 -3556 0
1 498 3527 0
1 -498 -3662 0
1 498 497 0
1 -498 499 0
1 -498 -3541 0
1 -498 -3512 0
1 498 3677 0
1 -498 -3647 0
1 513 -3557 0
1 -513 3632 0
1 -513 -3542 0
1 513 -3512 0
1 528 527 0
1 528 529 0
1 528 -3602 0
1 528 3512 0
1 3602 483 0
1 3602 -3603 0
1 -3602 468 0
1 3617 453 0
1 -3617 3602 0
1 3617 543 0
1 -3632 589 0
1 3632 498 0
1 3632 468 0
1 3632 574 0
1 3647 -544 0
1 3647 -513 0
1 3647 618 0
1 -3647 528 0
1 -3647 3632 0
1 -3647 468 0
1 -543 -3557 0
1 543 -3497 0
1 543 3602 0
1 543 -3512 0
1 -543 3482 0
1 -558 -3617 0
1 -558 3587 0
1 -558 -3467 0
1 -558 559 0
1 -573 3587 0
1 573 -3513 0
1 -588 -3557 0
1 588 -3467 0
1 588 587 0
1 588 3572 0
1 588 3513 0
1 -588 573 0
1 -3542 513 0
1 -3542 3543 0
1 -3542 3557 0
1 3542 -678 0
1 -3542 3541 0
1 3542 663 0
1 -3542 602 0
1 -3557 -3542 0
1 3557 -602 0
1 -3557 573 0
1 -3557 -543 0
1 3572 648 0
1 3572 558 0
1 3572 3573 0
1 3587 -558 0
1 -3587 -3572 0
1 -3587 663 0
1 -3587 -633 0
1 -3587 -543 0
1 602 -3392 0
1 602 -3557 0
1 602 3528 0
1 602 -617 0
1 -602 3437 0
1 602 3483 0
1 602 603 0
1 -602 -3452 0
1 617 -3407 0
1 -617 -3542 0
1 -617 3513 0
1 -617 602 0
1 -617 -3483 0
1 617 3452 0
1 632 -3392 0
1 632 3513 0
1 -632 -3542 0
1 -632 3423 0
1 -647 -3542 0
1 -647 -632 0
1 3483 707 0
1 -3483 677 0
1 3483 -3498 0
1 -3483 -588 0
1 3483 -723 0
1 3483 -662 0
1 3483 -632 0
1 -3483 -602 0
1 -3498 738 0
1 3498 677 0
1 3498 617 0
1 3498 3499 0
1 -3498 723 0
1 -3498 662 0
1 3498 3483 0
1 3513 708 0
1 -3513 -678 0
1 -3513 617 0
1 -3513 -588 0
1 3513 -3514 0
1 3513 -723 0
1 3513 693 0
1 -3513 663 0
1 -3513 -632 0
1 -3528 -647 0
1 3528 632 0
1 -662 -3392 0
1 -662 -3362 0
1 -662 -3333 0
1 662 677 0
1 -662 -3483 0
1 677 3392 0
1 677 -3453 0
1 692 -3333 0
1 -692 -3498 0
1 -692 -3438 0
1 -692 -3378 0
1 692 -691 0
1 -692 -3348 0
1 692 693 0
1 -707 -3363 0
1 -3423 707 0
1 3423 752 0
1 -3423 -722 0
1 -3423 632 0
1 -3423 -797 0
1 3438 -677 0
1 3438 647 0
1 3438 3437 0
1 -3438 -752 0
1 -3453 -738 0
1 3453 692 0
1 -3453 -662 0
1 3468 -677 0
1 -722 -3378 0
1 -722 3348 0
1 752 -3393 0
1 752 3334 0
1 -752 3304 0
1 -752 -3408 0
1 752 3378 0
1 -767 3334 0
1 767 3304 0
1 767 -3273 0
1 -767 -3288 0
1 -3363 707 0
1 3363 -722 0
1 3363 3378 0
1 3363 -767 0
1 3378 737 0
1 -3378 3363 0
1 -3378 -842 0
1 3378 -811 0
1 3378 -767 0
1 -3393 -3392 0
1 3393 692 0
1 -3393 -827 0
1 3408 842 0
1 3408 -782 0
1 -3408 -3409 0
1 3408 -722 0
1 3408 692 0
1 3408 -827 0
1 781 3363 0
1 781 3334 0
1 781 -780 0
1 -781 -3213 0
1 781 -3288 0
1 781 -3228 0
1 796 -795 0
1 796 797 0
1 -811 812 0
1 811 3213 0
1 811 3349 0
1 811 -3319 0
1 -826 3363 0
1 -826 3274 0
1 826 3213 0
1 -826 -825 0
1 3304 -781 0
1 3304 856 0
1 -3304 826 0
1 -3319 781 0
1 -3319 917 0
1 -3319 3318 0
1 -3319 826 0
1 -3319 796 0
1 -3334 -902 0
1 -3334 -872 0
1 -3334 -842 0
1 -3334 -811 0
1 3334 -917 0
1 3334 826 0
1 3334 767 0
1 3349 -872 0
1 3349 842 0
1 3349 811 0
1 3349 3348 0
1 -3349 -917 0
1 3349 -826 0
1 -841 -3169 0
1 841 -3304 0
1 -841 3228 0
1 -841 3198 0
1 -856 3289 0
1 856 -3304 0
1 -856 -3213 0
1 856 3259 0
1 -871 -870 0
1 871 -872 0
1 871 3274 0
1 -871 -3214 0
1 -871 3184 0
1 -871 -3259 0
1 -886 3289 0
1 -886 -3259 0
1 -3244 -931 0
1 3244 901 0
1 -3244 3243 0
1 3244 -916 0
1 -3259 -931 0
1 3259 3258 0
1 3259 -916 0
1 3274 -932 0
1 3274 841 0
1 -3274 -811 0
1 3274 886 0
1 -3274 -856 0
1 -3274 826 0
1 -3289 -886 0
1 -3289 856 0
1 3289 3288 0
1 -901 3139 0
1 901 -902 0
1 -901 -3184 0
1 901 -3094 0
1 -916 -3139 0
1 916 -901 0
1 916 3244 0
1 -916 3214 0
1 -916 915 0
1 916 3124 0
1 916 3229 0
1 -931 3109 0
1 931 3244 0
1 931 -946 0
1 -931 -3229 0
1 946 3244 0
1 -946 3259 0
1 3184 931 0
1 3199 3184 0
1 3214 -3213 0
1 -3214 -886 0
1 3229 871 0
1 3229 3228 0
1 -424 -3811 0
1 -424 -3781 0
1 424 423 0
1 424 3887 0
1 424 3857 0
1 -424 -3826 0
1 -439 3811 0
1 -439 -3781 0
1 439 -3826 0
1 -439 -3796 0
1 -439 3766 0
1 -454 3782 0
1 454 3857 0
1 454 3827 0
1 469 3887 0
1 -469 3797 0
1 3842 -514 0
1 3842 424 0
1 3842 -3857 0
1 3842 499 0
1 3857 -484 0
1 -3857 499 0
1 3857 -439 0
1 -3872 -424 0
1 -3872 3871 0
1 -3887 3872 0
1 3887 -424 0
1 -3887 3886 0
1 -484 -483 0
1 484 3812 0
1 484 3797 0
1 484 -3766 0
1 484 3736 0
1 -499 3721 0
1 514 -513 0
1 514 3812 0
1 -514 3752 0
1 -514 3722 0
1 -514 3737 0
1 -514 3707 0
1 529 514 0
1 529 3812 0
1 529 -3782 0
1 -529 3752 0
1 -529 3722 0
1 529 -3857 0
1 529 3797 0
1 529 3767 0
1 3782 3781 0
1 -3782 454 0
1 -3782 -589 0
1 -3782 -469 0
1 3797 514 0
1 3797 -454 0
1 3797 -559 0
1 3797 499 0
1 -3797 3796 0
1 -3797 469 0
1 -3797 3798 0
1 3812 -514 0
1 -3812 -499 0
1 3827 -514 0
1 -3827 454 0
1 -3827 -3828 0
1 -3827 -469 0
1 -544 3692 0
1 544 -3632 0
1 -544 -3737 0
1 -544 -3707 0
1 -559 -558 0
1 -559 3767 0
1 -574 3782 0
1 574 -3722 0
1 574 3647 0
1 589 -3782 0
1 -589 3752 0
1 -589 3647 0
1 3722 -648 0
1 -3722 3723 0
1 3722 -603 0
1 -3737 544 0
1 -3737 -514 0
1 3737 -648 0
1 -3737 618 0
1 3737 -574 0
1 -3752 544 0
1 3752 -649 0
1 3752 -619 0
1 3752 589 0
1 -3767 -679 0
1 -3767 559 0
1 -603 3722 0
1 603 3663 0
1 -603 3632 0
1 -603 -602 0
1 -618 -3587 0
1 618 617 0
1 618 3722 0
1 -618 3632 0
1 633 3648 0
1 633 -3587 0
1 -633 3633 0
1 -633 3603 0
1 -648 3618 0
1 -648 -649 0
1 648 -3663 0
1 -648 3633 0
1 -648 3737 0
1 -648 3572 0
1 -3663 3662 0
1 -3663 -724 0
1 3663 574 0
1 3678 -739 0
1 -3678 708 0
1 -3678 -648 0
1 3678 618 0
1 3678 -3663 0
1 -3678 -724 0
1 3678 693 0
1 3678 663 0
1 -3678 3677 0
1 3678 574 0
1 3693 -648 0
1 -3693 3692 0
1 3708 -739 0
1 -3708 618 0
1 3708 -633 0
1 663 -3618 0
1 -663 3587 0
1 -663 3557 0
1 663 -678 0
1 -663 -3528 0
1 -663 3663 0
1 663 -3572 0
1 -663 3542 0
1 -678 -3648 0
1 -678 3587 0
1 -678 -3528 0
1 -678 3542 0
1 -678 -663 0
1 678 -3678 0
1 693 3618 0
1 -693 708 0
1 693 -3588 0
1 -693 3573 0
1 693 -3543 0
1 708 3648 0
1 708 707 0
1 708 3558 0
1 708 -3633 0
1 3603 3618 0
1 3603 -3602 0
1 -3603 -723 0
1 -3603 633 0
1 -3618 -3619 0
1 3618 708 0
1 3618 -663 0
1 3633 739 0
1 -3648 708 0
1 -3648 648 0
1 -3648 -783 0
1 -3648 3633 0
1 -3648 -693 0
1 -3648 -663 0
1 3648 -3647 0
1 723 -3618 0
1 -723 3588 0
1 -723 3558 0
1 738 -737 0
1 738 3618 0
1 -738 3498 0
1 738 723 0
1 738 -3543 0
1 738 3483 0
1 753 3558 0
1 753 -3499 0
1 -753 3468 0
1 -753 752 0
1 753 3543 0
1 753 -3453 0
1 -768 -3618 0
1 768 -3468 0
1 768 -3573 0
1 768 -3543 0
1 -768 3514 0
1 -3543 -843 0
1 3543 782 0
1 3543 3542 0
1 -3543 -797 0
1 3558 738 0
1 -3558 843 0
1 -3558 -782 0
1 3558 753 0
1 -3573 708 0
1 -3573 723 0
1 -3573 798 0
1 3588 738 0
1 -3588 -708 0
1 3588 -3589 0
1 -3588 -843 0
1 -3588 723 0
1 -3588 858 0
1 -782 3499 0
1 -782 783 0
1 -782 -3408 0
1 782 3453 0
1 782 3484 0
1 -797 -3393 0
1 797 3558 0
1 -797 782 0
1 -797 -796 0
1 812 3424 0
1 812 3393 0
1 812 -3439 0
1 812 -3408 0
1 812 3514 0
1 -827 -3424 0
1 827 3393 0
1 3484 -768 0
1 -3484 887 0
1 -3484 827 0
1 -3499 -872 0
1 -3499 3484 0
1 -3499 -797 0
1 -3514 768 0
1 3514 -843 0
1 3514 782 0
1 -3514 -918 0
1 3514 827 0
1 842 -3393 0
1 842 3334 0
1 842 3378 0
1 -857 -3363 0
1 -857 3484 0
1 -857 -3454 0
1 -872 -3394 0
1 872 -3364 0
1 -872 3334 0
1 -872 -871 0
1 -872 -3409 0
1 -872 887 0
1 -872 -3484 0
1 887 -3424 0
1 -887 3439 0
1 -887 888 0
1 3424 -872 0
1 -3424 -3439 0
1 3439 3424 0
1 3439 -932 0
1 -3439 902 0
1 -3439 3438 0
1 -3439 -887 0
1 -3439 827 0
1 3454 -903 0
1 -3454 -812 0
1 -3454 -3453 0
1 -3469 -933 0
1 -3469 812 0
1 3469 -948 0
1 3469 -887 0
1 -3469 -857 0
1 -3469 -3454 0
1 902 -3424 0
1 -902 -3394 0
1 -902 -903 0
1 -902 -3304 0
1 -902 -3439 0
1 902 917 0
1 917 -918 0
1 932 -3394 0
1 -947 3394 0
1 -947 -946 0
1 -947 3379 0
1 -947 948 0
1 -3364 -947 0
1 -3379 902 0
1 -3379 917 0
1 3394 3393 0
1 -3394 -887 0
1 -3409 3394 0
1 -3409 902 0
1 3409 947 0
1 604 3782 0
1 -604 -3827 0
1 604 3797 0
1 -604 603 0
1 619 3782 0
1 619 618 0
1 -619 -604 0
1 -634 3813 0
1 -634 3752 0
1 634 3828 0
1 649 3873 0
1 649 -3813 0
1 -649 648 0
1 649 3828 0
1 649 3798 0
1 -649 -634 0
1 3843 709 0
1 3843 649 0
1 -3843 619 0
1 -3843 -664 0
1 3843 -604 0
1 3858 709 0
1 3858 -3857 0
1 -3858 694 0
1 3858 -664 0
1 -3858 -604 0
1 3873 634 0
1 3888 -649 0
1 664 3767 0
1 664 -3693 0
1 -664 -3858 0
1 664 3798 0
1 -679 -3693 0
1 679 -3858 0
1 -679 -3828 0
1 679 -3708 0
1 694 3783 0
1 694 -693 0
1 694 -3768 0
1 -709 3843 0
1 709 -708 0
1 709 -3693 0
1 709 3738 0
1 3783 -679 0
1 3783 -3784 0
1 -3783 664 0
1 -3783 634 0
1 -3798 -694 0
1 -3798 799 0
1 -3813 3812 0
1 -3813 3814 0
1 3813 -784 0
1 -3813 -694 0
1 -3828 3827 0
1 3828 694 0
1 -3828 634 0
1 -724 3648 0
1 724 3753 0
1 -724 3678 0
1 -739 3723 0
1 739 3693 0
1 739 3768 0
1 754 3798 0
1 754 -3768 0
1 -754 -3679 0
1 -769 3648 0
1 -769 -3723 0
1 769 3694 0
1 769 -3798 0
1 -3723 769 0
1 3723 739 0
1 3723 -844 0
1 3723 -3724 0
1 -3723 724 0
1 3723 -694 0
1 3723 -828 0
1 3738 -813 0
1 3738 -724 0
1 3753 -769 0
1 -3753 -3752 0
1 3753 -844 0
1 -3753 3768 0
1 -3753 859 0
1 -3768 739 0
1 -3768 784 0
1 3768 -694 0
1 -3768 -3769 0
1 783 3723 0
1 783 -782 0
1 783 3694 0
1 783 784 0
1 783 3603 0
1 798 3648 0
1 798 -3588 0
1 798 -3679 0
1 798 -783 0
1 798 -3664 0
1 -798 -3603 0
1 -798 -3573 0
1 -813 -3649 0
1 -813 3588 0
1 813 3694 0
1 -813 3573 0
1 813 3738 0
1 -813 -3679 0
1 -828 3649 0
1 -828 3709 0
1 -828 3664 0
1 828 -3634 0
1 -828 -3604 0
1 -828 -829 0
1 828 3679 0
1 3664 873 0
1 -3664 754 0
1 3664 -919 0
1 -3664 858 0
1 -3664 828 0
1 -3664 3679 0
1 -3679 -904 0
1 -3679 -3678 0
1 3679 3664 0
1 3679 -919 0
1 3679 888 0
1 -3679 798 0
1 -3694 769 0
1 -3694 -3693 0
1 -3694 -783 0
1 3694 -889 0
1 -3709 -769 0
1 3709 874 0
1 -3709 -919 0
1 -3709 889 0
1 -3709 859 0
1 -3709 798 0
1 843 3588 0
1 -843 -3604 0
1 843 -3514 0
1 -843 858 0
1 858 3619 0
1 -858 -3588 0
1 -858 -3558 0
1 -858 3529 0
1 -858 -843 0
1 858 -3634 0
1 858 3543 0
1 873 3529 0
1 873 -874 0
1 873 -3514 0
1 873 -3679 0
1 888 3589 0
1 -888 3664 0
1 -888 -3604 0
1 888 889 0
1 -3604 933 0
1 3604 918 0
1 -3604 828 0
1 3619 -843 0
1 -3619 948 0
1 3619 858 0
1 3634 -843 0
1 -3634 919 0
1 3634 888 0
1 -3649 -934 0
1 3649 873 0
1 -3649 -813 0
1 3649 -949 0
1 3649 888 0
1 -3649 -858 0
1 -903 3589 0
1 -903 902 0
1 903 3559 0
1 -903 -904 0
1 903 -3514 0
1 903 -3454 0
1 -918 -3589 0
1 918 -3559 0
1 -918 3529 0
1 918 -3499 0
1 918 -3604 0
1 -918 -3574 0
1 -918 -3544 0
1 -918 3514 0
1 918 3484 0
1 -933 -3469 0
1 -948 -3469 0
1 -948 -947 0
1 948 3544 0
1 -948 3454 0
1 -3544 3559 0
1 -3544 -888 0
1 3559 3558 0
1 3559 3544 0
1 -3559 948 0
1 3574 -903 0
1 3574 -918 0
1 3589 -903 0
1 -3589 -948 0
1 784 -3844 0
1 784 -3813 0
1 -784 -3889 0
1 784 799 0
1 -799 -3844 0
1 799 -3889 0
1 -799 798 0
1 -814 -3784 0
1 -814 -3799 0
1 -814 829 0
1 829 3844 0
1 -829 -814 0
1 -829 -3829 0
1 -829 -828 0
1 -3844 844 0
1 -3844 814 0
1 -3844 829 0
1 3844 799 0
1 -3859 -829 0
1 3874 829 0
1 -3889 784 0
1 -3889 829 0
1 -844 -3784 0
1 -859 -3814 0
1 -859 -3753 0
1 859 -3829 0
1 -859 -3709 0
1 874 -3784 0
1 -874 873 0
1 874 -3754 0
1 -874 3694 0
1 889 3814 0
1 889 3784 0
1 -889 -874 0
1 -889 -3694 0
1 889 -3739 0
1 889 -3709 0
1 -3784 934 0
1 -3784 3799 0
1 3784 -844 0
1 3784 -814 0
1 -3784 829 0
1 -3799 -934 0
1 3799 874 0
1 3799 -889 0
1 -3799 -859 0
1 3799 829 0
1 -3814 3813 0
1 3814 -844 0
1 -3814 889 0
1 3829 -3814 0
1 3829 874 0
1 -3829 3828 0
1 3829 859 0
1 -904 3694 0
1 -904 3769 0
1 904 3739 0
1 -919 -3754 0
1 -919 3694 0
1 -919 3799 0
1 919 3739 0
1 919 -3679 0
1 934 -3784 0
1 934 3724 0
1 -934 -949 0
1 949 -3649 0
1 949 -3724 0
1 949 948 0
1 949 3769 0
1 3724 -904 0
1 -3739 934 0
1 -3739 949 0
1 -3739 889 0
1 3754 -874 0
1 3769 934 0
1 -3769 -3754 0
1 -3769 919 0
